# Solution for model r5_t27_m6_4
# Finished Task: 26 / 27
# Makespan: 739.0, Total Distance: 1320.0, Total Time: 0.4658
# R O S F
0 0 11 0.0 0.0
1 1 5 0.0 0.0
2 2 10 0.0 0.0
3 3 12 0.0 0.0
4 4 6 0.0 0.0
5 1 21 395.0 415.0
6 4 13 368.0 405.0
7 1 -1 695.0 726.0
8 4 15 496.0 524.0
9 3 25 463.0 500.0
10 2 24 230.0 258.0
11 0 23 119.0 156.0
12 3 29 264.0 303.0
13 4 8 470.0 496.0
14 4 -1 712.0 735.0
15 4 14 609.0 647.0
16 2 22 413.0 447.0
17 -1 -1 -1.0 -1.0
18 0 28 570.0 595.0
19 2 31 566.0 596.0
20 0 18 514.0 553.0
21 1 30 555.0 575.0
22 2 19 480.0 508.0
23 0 20 345.0 368.0
24 2 16 375.0 413.0
25 3 27 509.0 529.0
26 3 -1 680.0 705.0
27 3 26 552.0 582.0
28 0 -1 677.0 705.0
29 3 9 377.0 405.0
30 1 7 608.0 630.0
31 2 -1 713.0 739.0
